101
0 48 62 16 65 96 43 91 22 87 
26 1 29 11 20 53 92 33 51 100 
28 68 27 70 23 4 39 69 42 7 
52 17 54 31 90 61 59 56 50 9 
72 37 81 5 46 36 82 95 83 38 
25 10 41 24 14 49 40 35 73 89 
57 15 18 78 88 85 94 55 21 71 
2 97 19 80 30 74 3 93 66 12 
79 44 76 47 99 67 8 45 34 98 
6 58 75 84 60 63 77 86 64 32 
13 
